unknown
(model
; cardinality of BoundSet is 2
(declare-sort BoundSet 0)
; rep: @uc_BoundSet_0
; rep: @uc_BoundSet_1
; cardinality of UnboundSet is 1
(declare-sort UnboundSet 0)
(declare-fun groundTerm_3 () UnboundSet)
(define-fun IsGiven ((BOUND_VARIABLE_377 BoundSet) (BOUND_VARIABLE_378 BoundSet)) Bool true)
(define-fun IsWalkingTo ((BOUND_VARIABLE_377 BoundSet) (BOUND_VARIABLE_378 BoundSet)) Bool false)
(define-fun IsComplaining ((BOUND_VARIABLE_393 BoundSet)) Bool false)
)
sat
(model
; cardinality of BoundSet is 1
(declare-sort BoundSet 0)
; rep: @uc_BoundSet_0
; cardinality of UnboundSet is 1
(declare-sort UnboundSet 0)
(declare-fun groundTerm_5 () UnboundSet)
(define-fun IsGiven ((BOUND_VARIABLE_397 BoundSet) (BOUND_VARIABLE_398 BoundSet)) Bool true)
(define-fun IsWalkingTo ((BOUND_VARIABLE_397 BoundSet) (BOUND_VARIABLE_398 BoundSet)) Bool true)
(define-fun IsComplaining ((BOUND_VARIABLE_403 BoundSet)) Bool true)
)
